min: 3020 z_0 + 4247 z_1 + 5003 z_2 + 4817 z_3 + 3882 z_4 + 2360 z_5 + 2134 z_6 + 2284 z_7 + 4229 z_8 + 1935 z_9 + 1696 z_10 + 3418 z_11 + 41 x_0_0 + 35 x_0_1 + 9 x_0_2 + 35 x_0_3 + 16 x_0_4 + 12 x_0_5 + 48 x_0_6 + 38 x_0_7 + 32 x_0_8 + 24 x_0_9 + 30 x_0_10 + 5 x_0_11 + 44 x_1_0 + 32 x_1_1 + 16 x_1_2 + 13 x_1_3 + 13 x_1_4 + 17 x_1_5 + 28 x_1_6 + 28 x_1_7 + 6 x_1_8 + 30 x_1_9 + 13 x_1_10 + 41 x_1_11 + 5 x_2_0 + 8 x_2_1 + 39 x_2_2 + 28 x_2_3 + 4 x_2_4 + 30 x_2_5 + 26 x_2_6 + 15 x_2_7 + 34 x_2_8 + 14 x_2_9 + 14 x_2_10 + 47 x_2_11 + 42 x_3_0 + 45 x_3_1 + 20 x_3_2 + 44 x_3_3 + 23 x_3_4 + 5 x_3_5 + 9 x_3_6 + 27 x_3_7 + 2 x_3_8 + 37 x_3_9 + 49 x_3_10 + 14 x_3_11 + 1 x_4_0 + 17 x_4_1 + 29 x_4_2 + 5 x_4_3 + 11 x_4_4 + 22 x_4_5 + 47 x_4_6 + 48 x_4_7 + 2 x_4_8 + 21 x_4_9 + 15 x_4_10 + 1 x_4_11 + 38 x_5_0 + 28 x_5_1 + 30 x_5_2 + 7 x_5_3 + 30 x_5_4 + 5 x_5_5 + 39 x_5_6 + 11 x_5_7 + 13 x_5_8 + 26 x_5_9 + 49 x_5_10 + 24 x_5_11 + 30 x_6_0 + 18 x_6_1 + 24 x_6_2 + 21 x_6_3 + 17 x_6_4 + 31 x_6_5 + 14 x_6_6 + 22 x_6_7 + 24 x_6_8 + 18 x_6_9 + 41 x_6_10 + 34 x_6_11 + 21 x_7_0 + 44 x_7_1 + 31 x_7_2 + 22 x_7_3 + 14 x_7_4 + 48 x_7_5 + 40 x_7_6 + 39 x_7_7 + 27 x_7_8 + 4 x_7_9 + 11 x_7_10 + 5 x_7_11 + 18 y_0_0 + 49 y_0_1 + 44 y_0_2 + 6 y_0_3 + 48 y_0_4 + 42 y_0_5 + 18 y_0_6 + 37 y_0_7 + 16 y_0_8 + 22 y_0_9 + 30 y_0_10 + 1 y_0_11 + 33 y_0_12 + 31 y_1_0 + 30 y_1_1 + 13 y_1_2 + 6 y_1_3 + 49 y_1_4 + 49 y_1_5 + 3 y_1_6 + 21 y_1_7 + 45 y_1_8 + 45 y_1_9 + 33 y_1_10 + 9 y_1_11 + 41 y_1_12 + 30 y_2_0 + 2 y_2_1 + 31 y_2_2 + 50 y_2_3 + 22 y_2_4 + 42 y_2_5 + 19 y_2_6 + 21 y_2_7 + 21 y_2_8 + 21 y_2_9 + 42 y_2_10 + 38 y_2_11 + 35 y_2_12 + 27 y_3_0 + 38 y_3_1 + 44 y_3_2 + 14 y_3_3 + 32 y_3_4 + 37 y_3_5 + 30 y_3_6 + 11 y_3_7 + 21 y_3_8 + 42 y_3_9 + 13 y_3_10 + 12 y_3_11 + 6 y_3_12 + 14 y_4_0 + 12 y_4_1 + 2 y_4_2 + 6 y_4_3 + 41 y_4_4 + 4 y_4_5 + 11 y_4_6 + 50 y_4_7 + 6 y_4_8 + 16 y_4_9 + 9 y_4_10 + 48 y_4_11 + 31 y_4_12 + 9 y_5_0 + 16 y_5_1 + 42 y_5_2 + 10 y_5_3 + 46 y_5_4 + 13 y_5_5 + 26 y_5_6 + 23 y_5_7 + 32 y_5_8 + 40 y_5_9 + 11 y_5_10 + 47 y_5_11 + 36 y_5_12 + 34 y_6_0 + 29 y_6_1 + 11 y_6_2 + 50 y_6_3 + 14 y_6_4 + 23 y_6_5 + 42 y_6_6 + 12 y_6_7 + 29 y_6_8 + 30 y_6_9 + 39 y_6_10 + 4 y_6_11 + 28 y_6_12 + 43 y_7_0 + 29 y_7_1 + 10 y_7_2 + 42 y_7_3 + 32 y_7_4 + 44 y_7_5 + 21 y_7_6 + 32 y_7_7 + 3 y_7_8 + 48 y_7_9 + 27 y_7_10 + 21 y_7_11 + 28 y_7_12 + 49 y_8_0 + 13 y_8_1 + 16 y_8_2 + 31 y_8_3 + 35 y_8_4 + 45 y_8_5 + 43 y_8_6 + 13 y_8_7 + 34 y_8_8 + 37 y_8_9 + 6 y_8_10 + 7 y_8_11 + 12 y_8_12 + 1 y_9_0 + 33 y_9_1 + 3 y_9_2 + 28 y_9_3 + 30 y_9_4 + 45 y_9_5 + 42 y_9_6 + 32 y_9_7 + 8 y_9_8 + 39 y_9_9 + 39 y_9_10 + 24 y_9_11 + 32 y_9_12 + 49 y_10_0 + 48 y_10_1 + 33 y_10_2 + 50 y_10_3 + 15 y_10_4 + 2 y_10_5 + 23 y_10_6 + 7 y_10_7 + 22 y_10_8 + 38 y_10_9 + 32 y_10_10 + 37 y_10_11 + 12 y_10_12 + 46 y_11_0 + 33 y_11_1 + 32 y_11_2 + 21 y_11_3 + 10 y_11_4 + 11 y_11_5 + 24 y_11_6 + 18 y_11_7 + 11 y_11_8 + 38 y_11_9 + 17 y_11_10 + 7 y_11_11 + 47 y_11_12;

x_0_0 + x_0_1 + x_0_2 + x_0_3 + x_0_4 + x_0_5 + x_0_6 + x_0_7 + x_0_8 + x_0_9 + x_0_10 + x_0_11 <= 339;
x_1_0 + x_1_1 + x_1_2 + x_1_3 + x_1_4 + x_1_5 + x_1_6 + x_1_7 + x_1_8 + x_1_9 + x_1_10 + x_1_11 <= 232;
x_2_0 + x_2_1 + x_2_2 + x_2_3 + x_2_4 + x_2_5 + x_2_6 + x_2_7 + x_2_8 + x_2_9 + x_2_10 + x_2_11 <= 365;
x_3_0 + x_3_1 + x_3_2 + x_3_3 + x_3_4 + x_3_5 + x_3_6 + x_3_7 + x_3_8 + x_3_9 + x_3_10 + x_3_11 <= 332;
x_4_0 + x_4_1 + x_4_2 + x_4_3 + x_4_4 + x_4_5 + x_4_6 + x_4_7 + x_4_8 + x_4_9 + x_4_10 + x_4_11 <= 368;
x_5_0 + x_5_1 + x_5_2 + x_5_3 + x_5_4 + x_5_5 + x_5_6 + x_5_7 + x_5_8 + x_5_9 + x_5_10 + x_5_11 <= 221;
x_6_0 + x_6_1 + x_6_2 + x_6_3 + x_6_4 + x_6_5 + x_6_6 + x_6_7 + x_6_8 + x_6_9 + x_6_10 + x_6_11 <= 280;
x_7_0 + x_7_1 + x_7_2 + x_7_3 + x_7_4 + x_7_5 + x_7_6 + x_7_7 + x_7_8 + x_7_9 + x_7_10 + x_7_11 <= 187;

x_0_0 + x_1_0 + x_2_0 + x_3_0 + x_4_0 + x_5_0 + x_6_0 + x_7_0 - y_0_0 - y_0_1 - y_0_2 - y_0_3 - y_0_4 - y_0_5 - y_0_6 - y_0_7 - y_0_8 - y_0_9 - y_0_10 - y_0_11 - y_0_12 = 0;
x_0_1 + x_1_1 + x_2_1 + x_3_1 + x_4_1 + x_5_1 + x_6_1 + x_7_1 - y_1_0 - y_1_1 - y_1_2 - y_1_3 - y_1_4 - y_1_5 - y_1_6 - y_1_7 - y_1_8 - y_1_9 - y_1_10 - y_1_11 - y_1_12 = 0;
x_0_2 + x_1_2 + x_2_2 + x_3_2 + x_4_2 + x_5_2 + x_6_2 + x_7_2 - y_2_0 - y_2_1 - y_2_2 - y_2_3 - y_2_4 - y_2_5 - y_2_6 - y_2_7 - y_2_8 - y_2_9 - y_2_10 - y_2_11 - y_2_12 = 0;
x_0_3 + x_1_3 + x_2_3 + x_3_3 + x_4_3 + x_5_3 + x_6_3 + x_7_3 - y_3_0 - y_3_1 - y_3_2 - y_3_3 - y_3_4 - y_3_5 - y_3_6 - y_3_7 - y_3_8 - y_3_9 - y_3_10 - y_3_11 - y_3_12 = 0;
x_0_4 + x_1_4 + x_2_4 + x_3_4 + x_4_4 + x_5_4 + x_6_4 + x_7_4 - y_4_0 - y_4_1 - y_4_2 - y_4_3 - y_4_4 - y_4_5 - y_4_6 - y_4_7 - y_4_8 - y_4_9 - y_4_10 - y_4_11 - y_4_12 = 0;
x_0_5 + x_1_5 + x_2_5 + x_3_5 + x_4_5 + x_5_5 + x_6_5 + x_7_5 - y_5_0 - y_5_1 - y_5_2 - y_5_3 - y_5_4 - y_5_5 - y_5_6 - y_5_7 - y_5_8 - y_5_9 - y_5_10 - y_5_11 - y_5_12 = 0;
x_0_6 + x_1_6 + x_2_6 + x_3_6 + x_4_6 + x_5_6 + x_6_6 + x_7_6 - y_6_0 - y_6_1 - y_6_2 - y_6_3 - y_6_4 - y_6_5 - y_6_6 - y_6_7 - y_6_8 - y_6_9 - y_6_10 - y_6_11 - y_6_12 = 0;
x_0_7 + x_1_7 + x_2_7 + x_3_7 + x_4_7 + x_5_7 + x_6_7 + x_7_7 - y_7_0 - y_7_1 - y_7_2 - y_7_3 - y_7_4 - y_7_5 - y_7_6 - y_7_7 - y_7_8 - y_7_9 - y_7_10 - y_7_11 - y_7_12 = 0;
x_0_8 + x_1_8 + x_2_8 + x_3_8 + x_4_8 + x_5_8 + x_6_8 + x_7_8 - y_8_0 - y_8_1 - y_8_2 - y_8_3 - y_8_4 - y_8_5 - y_8_6 - y_8_7 - y_8_8 - y_8_9 - y_8_10 - y_8_11 - y_8_12 = 0;
x_0_9 + x_1_9 + x_2_9 + x_3_9 + x_4_9 + x_5_9 + x_6_9 + x_7_9 - y_9_0 - y_9_1 - y_9_2 - y_9_3 - y_9_4 - y_9_5 - y_9_6 - y_9_7 - y_9_8 - y_9_9 - y_9_10 - y_9_11 - y_9_12 = 0;
x_0_10 + x_1_10 + x_2_10 + x_3_10 + x_4_10 + x_5_10 + x_6_10 + x_7_10 - y_10_0 - y_10_1 - y_10_2 - y_10_3 - y_10_4 - y_10_5 - y_10_6 - y_10_7 - y_10_8 - y_10_9 - y_10_10 - y_10_11 - y_10_12 = 0;
x_0_11 + x_1_11 + x_2_11 + x_3_11 + x_4_11 + x_5_11 + x_6_11 + x_7_11 - y_11_0 - y_11_1 - y_11_2 - y_11_3 - y_11_4 - y_11_5 - y_11_6 - y_11_7 - y_11_8 - y_11_9 - y_11_10 - y_11_11 - y_11_12 = 0;

y_0_0 + y_0_1 + y_0_2 + y_0_3 + y_0_4 + y_0_5 + y_0_6 + y_0_7 + y_0_8 + y_0_9 + y_0_10 + y_0_11 + y_0_12 - 131 z_0 <= 0;
y_1_0 + y_1_1 + y_1_2 + y_1_3 + y_1_4 + y_1_5 + y_1_6 + y_1_7 + y_1_8 + y_1_9 + y_1_10 + y_1_11 + y_1_12 - 355 z_1 <= 0;
y_2_0 + y_2_1 + y_2_2 + y_2_3 + y_2_4 + y_2_5 + y_2_6 + y_2_7 + y_2_8 + y_2_9 + y_2_10 + y_2_11 + y_2_12 - 104 z_2 <= 0;
y_3_0 + y_3_1 + y_3_2 + y_3_3 + y_3_4 + y_3_5 + y_3_6 + y_3_7 + y_3_8 + y_3_9 + y_3_10 + y_3_11 + y_3_12 - 294 z_3 <= 0;
y_4_0 + y_4_1 + y_4_2 + y_4_3 + y_4_4 + y_4_5 + y_4_6 + y_4_7 + y_4_8 + y_4_9 + y_4_10 + y_4_11 + y_4_12 - 396 z_4 <= 0;
y_5_0 + y_5_1 + y_5_2 + y_5_3 + y_5_4 + y_5_5 + y_5_6 + y_5_7 + y_5_8 + y_5_9 + y_5_10 + y_5_11 + y_5_12 - 110 z_5 <= 0;
y_6_0 + y_6_1 + y_6_2 + y_6_3 + y_6_4 + y_6_5 + y_6_6 + y_6_7 + y_6_8 + y_6_9 + y_6_10 + y_6_11 + y_6_12 - 279 z_6 <= 0;
y_7_0 + y_7_1 + y_7_2 + y_7_3 + y_7_4 + y_7_5 + y_7_6 + y_7_7 + y_7_8 + y_7_9 + y_7_10 + y_7_11 + y_7_12 - 415 z_7 <= 0;
y_8_0 + y_8_1 + y_8_2 + y_8_3 + y_8_4 + y_8_5 + y_8_6 + y_8_7 + y_8_8 + y_8_9 + y_8_10 + y_8_11 + y_8_12 - 422 z_8 <= 0;
y_9_0 + y_9_1 + y_9_2 + y_9_3 + y_9_4 + y_9_5 + y_9_6 + y_9_7 + y_9_8 + y_9_9 + y_9_10 + y_9_11 + y_9_12 - 291 z_9 <= 0;
y_10_0 + y_10_1 + y_10_2 + y_10_3 + y_10_4 + y_10_5 + y_10_6 + y_10_7 + y_10_8 + y_10_9 + y_10_10 + y_10_11 + y_10_12 - 151 z_10 <= 0;
y_11_0 + y_11_1 + y_11_2 + y_11_3 + y_11_4 + y_11_5 + y_11_6 + y_11_7 + y_11_8 + y_11_9 + y_11_10 + y_11_11 + y_11_12 - 108 z_11 <= 0;

y_0_0 + y_1_0 + y_2_0 + y_3_0 + y_4_0 + y_5_0 + y_6_0 + y_7_0 + y_8_0 + y_9_0 + y_10_0 + y_11_0 = 119;
y_0_1 + y_1_1 + y_2_1 + y_3_1 + y_4_1 + y_5_1 + y_6_1 + y_7_1 + y_8_1 + y_9_1 + y_10_1 + y_11_1 = 126;
y_0_2 + y_1_2 + y_2_2 + y_3_2 + y_4_2 + y_5_2 + y_6_2 + y_7_2 + y_8_2 + y_9_2 + y_10_2 + y_11_2 = 150;
y_0_3 + y_1_3 + y_2_3 + y_3_3 + y_4_3 + y_5_3 + y_6_3 + y_7_3 + y_8_3 + y_9_3 + y_10_3 + y_11_3 = 63;
y_0_4 + y_1_4 + y_2_4 + y_3_4 + y_4_4 + y_5_4 + y_6_4 + y_7_4 + y_8_4 + y_9_4 + y_10_4 + y_11_4 = 75;
y_0_5 + y_1_5 + y_2_5 + y_3_5 + y_4_5 + y_5_5 + y_6_5 + y_7_5 + y_8_5 + y_9_5 + y_10_5 + y_11_5 = 148;
y_0_6 + y_1_6 + y_2_6 + y_3_6 + y_4_6 + y_5_6 + y_6_6 + y_7_6 + y_8_6 + y_9_6 + y_10_6 + y_11_6 = 119;
y_0_7 + y_1_7 + y_2_7 + y_3_7 + y_4_7 + y_5_7 + y_6_7 + y_7_7 + y_8_7 + y_9_7 + y_10_7 + y_11_7 = 166;
y_0_8 + y_1_8 + y_2_8 + y_3_8 + y_4_8 + y_5_8 + y_6_8 + y_7_8 + y_8_8 + y_9_8 + y_10_8 + y_11_8 = 105;
y_0_9 + y_1_9 + y_2_9 + y_3_9 + y_4_9 + y_5_9 + y_6_9 + y_7_9 + y_8_9 + y_9_9 + y_10_9 + y_11_9 = 62;
y_0_10 + y_1_10 + y_2_10 + y_3_10 + y_4_10 + y_5_10 + y_6_10 + y_7_10 + y_8_10 + y_9_10 + y_10_10 + y_11_10 = 81;
y_0_11 + y_1_11 + y_2_11 + y_3_11 + y_4_11 + y_5_11 + y_6_11 + y_7_11 + y_8_11 + y_9_11 + y_10_11 + y_11_11 = 155;
y_0_12 + y_1_12 + y_2_12 + y_3_12 + y_4_12 + y_5_12 + y_6_12 + y_7_12 + y_8_12 + y_9_12 + y_10_12 + y_11_12 = 152;

z_0 + z_1 + z_2 + z_3 + z_4 + z_5 + z_6 + z_7 + z_8 + z_9 + z_10 + z_11 <= 9;

bin z_0, z_1, z_2, z_3, z_4, z_5, z_6, z_7, z_8, z_9, z_10, z_11;
